c The cardinality of a maximum matching is 128.
c Bi-partite graph

p edge 256 3275
e 1 129
e 1 134
e 1 139
e 1 141
e 1 149
e 1 150
e 1 155
e 1 156
e 1 157
e 1 161
e 1 176
e 1 177
e 1 179
e 1 189
e 1 191
e 1 204
e 1 205
e 1 207
e 1 210
e 1 215
e 1 228
e 1 243
e 1 246
e 1 251
e 1 254
e 1 255
e 2 129
e 2 132
e 2 135
e 2 143
e 2 145
e 2 152
e 2 165
e 2 177
e 2 179
e 2 182
e 2 184
e 2 193
e 2 195
e 2 196
e 2 206
e 2 225
e 2 226
e 2 228
e 2 231
e 2 234
e 2 242
e 2 243
e 2 245
e 2 251
e 2 253
e 2 255
e 3 137
e 3 139
e 3 160
e 3 167
e 3 168
e 3 171
e 3 176
e 3 181
e 3 187
e 3 190
e 3 191
e 3 203
e 3 204
e 3 207
e 3 217
e 3 221
e 3 229
e 3 230
e 3 234
e 3 239
e 3 256
e 4 132
e 4 133
e 4 141
e 4 143
e 4 149
e 4 154
e 4 158
e 4 160
e 4 175
e 4 176
e 4 178
e 4 179
e 4 182
e 4 183
e 4 185
e 4 187
e 4 193
e 4 199
e 4 200
e 4 205
e 4 220
e 4 221
e 4 237
e 4 250
e 4 253
e 5 129
e 5 131
e 5 132
e 5 136
e 5 139
e 5 140
e 5 146
e 5 147
e 5 150
e 5 154
e 5 157
e 5 161
e 5 171
e 5 172
e 5 180
e 5 183
e 5 186
e 5 187
e 5 190
e 5 203
e 5 205
e 5 208
e 5 214
e 5 222
e 5 228
e 5 230
e 5 231
e 5 237
e 5 239
e 5 243
e 5 250
e 6 134
e 6 137
e 6 145
e 6 146
e 6 147
e 6 156
e 6 167
e 6 172
e 6 182
e 6 186
e 6 201
e 6 205
e 6 206
e 6 207
e 6 209
e 6 210
e 6 215
e 6 220
e 6 221
e 6 237
e 7 130
e 7 131
e 7 140
e 7 142
e 7 147
e 7 150
e 7 153
e 7 162
e 7 173
e 7 179
e 7 181
e 7 183
e 7 186
e 7 187
e 7 196
e 7 200
e 7 201
e 7 202
e 7 213
e 7 214
e 7 218
e 7 220
e 7 225
e 7 226
e 7 228
e 7 233
e 7 234
e 7 246
e 7 247
e 8 168
e 8 172
e 8 174
e 8 177
e 8 178
e 8 181
e 8 182
e 8 190
e 8 194
e 8 205
e 8 211
e 8 217
e 8 226
e 8 231
e 8 233
e 8 237
e 8 238
e 8 242
e 8 249
e 9 132
e 9 148
e 9 153
e 9 169
e 9 171
e 9 172
e 9 176
e 9 192
e 9 193
e 9 195
e 9 196
e 9 200
e 9 215
e 9 221
e 9 226
e 9 232
e 9 233
e 9 247
e 9 248
e 9 249
e 9 253
e 9 256
e 10 130
e 10 138
e 10 142
e 10 147
e 10 157
e 10 161
e 10 167
e 10 173
e 10 176
e 10 177
e 10 180
e 10 181
e 10 187
e 10 189
e 10 195
e 10 203
e 10 207
e 10 212
e 10 219
e 10 220
e 10 222
e 10 223
e 10 226
e 10 229
e 10 230
e 10 233
e 10 246
e 10 249
e 10 250
e 10 251
e 10 252
e 10 253
e 11 131
e 11 132
e 11 134
e 11 136
e 11 138
e 11 139
e 11 140
e 11 144
e 11 146
e 11 152
e 11 157
e 11 161
e 11 162
e 11 164
e 11 166
e 11 173
e 11 175
e 11 177
e 11 180
e 11 186
e 11 198
e 11 200
e 11 201
e 11 203
e 11 209
e 11 220
e 11 226
e 11 236
e 11 238
e 11 242
e 11 248
e 11 250
e 11 252
e 11 256
e 12 133
e 12 134
e 12 141
e 12 142
e 12 143
e 12 154
e 12 159
e 12 174
e 12 182
e 12 188
e 12 194
e 12 196
e 12 202
e 12 205
e 12 206
e 12 207
e 12 209
e 12 211
e 12 214
e 12 216
e 12 226
e 12 228
e 12 232
e 12 251
e 13 131
e 13 134
e 13 137
e 13 144
e 13 145
e 13 149
e 13 153
e 13 155
e 13 164
e 13 165
e 13 168
e 13 184
e 13 185
e 13 186
e 13 188
e 13 194
e 13 196
e 13 197
e 13 201
e 13 203
e 13 213
e 13 220
e 13 221
e 13 224
e 13 229
e 13 233
e 13 234
e 13 235
e 13 242
e 13 248
e 13 251
e 13 255
e 14 135
e 14 138
e 14 139
e 14 142
e 14 143
e 14 147
e 14 157
e 14 162
e 14 178
e 14 191
e 14 192
e 14 193
e 14 194
e 14 200
e 14 205
e 14 211
e 14 212
e 14 221
e 14 224
e 14 226
e 14 246
e 14 247
e 14 251
e 15 132
e 15 135
e 15 136
e 15 138
e 15 148
e 15 151
e 15 152
e 15 153
e 15 154
e 15 157
e 15 164
e 15 177
e 15 185
e 15 191
e 15 196
e 15 200
e 15 201
e 15 205
e 15 208
e 15 220
e 15 226
e 15 228
e 15 236
e 15 239
e 15 243
e 15 247
e 16 133
e 16 134
e 16 138
e 16 140
e 16 141
e 16 144
e 16 145
e 16 146
e 16 147
e 16 155
e 16 177
e 16 178
e 16 180
e 16 185
e 16 192
e 16 194
e 16 195
e 16 198
e 16 203
e 16 206
e 16 210
e 16 214
e 16 216
e 16 227
e 16 228
e 16 232
e 16 243
e 16 252
e 16 255
e 17 129
e 17 138
e 17 141
e 17 143
e 17 145
e 17 148
e 17 154
e 17 155
e 17 162
e 17 175
e 17 181
e 17 185
e 17 186
e 17 192
e 17 194
e 17 197
e 17 200
e 17 212
e 17 216
e 17 228
e 17 231
e 17 234
e 17 235
e 17 239
e 17 243
e 17 248
e 17 253
e 17 256
e 18 130
e 18 136
e 18 139
e 18 142
e 18 152
e 18 154
e 18 158
e 18 163
e 18 164
e 18 173
e 18 175
e 18 177
e 18 178
e 18 179
e 18 187
e 18 189
e 18 193
e 18 194
e 18 203
e 18 208
e 18 214
e 18 218
e 18 250
e 18 255
e 18 256
e 19 129
e 19 135
e 19 139
e 19 140
e 19 147
e 19 151
e 19 152
e 19 153
e 19 165
e 19 166
e 19 176
e 19 180
e 19 183
e 19 202
e 19 215
e 19 222
e 19 223
e 19 225
e 19 232
e 19 233
e 19 236
e 19 237
e 19 244
e 19 248
e 19 251
e 19 254
e 20 133
e 20 136
e 20 139
e 20 148
e 20 149
e 20 150
e 20 151
e 20 158
e 20 159
e 20 160
e 20 168
e 20 185
e 20 187
e 20 189
e 20 194
e 20 195
e 20 197
e 20 205
e 20 217
e 20 223
e 20 226
e 20 228
e 20 232
e 20 237
e 20 254
e 20 255
e 21 133
e 21 137
e 21 141
e 21 146
e 21 149
e 21 155
e 21 157
e 21 174
e 21 180
e 21 184
e 21 185
e 21 186
e 21 189
e 21 190
e 21 192
e 21 196
e 21 208
e 21 210
e 21 225
e 21 226
e 21 231
e 21 237
e 21 247
e 21 248
e 21 253
e 22 130
e 22 132
e 22 133
e 22 137
e 22 142
e 22 158
e 22 159
e 22 161
e 22 166
e 22 169
e 22 174
e 22 179
e 22 180
e 22 185
e 22 186
e 22 188
e 22 203
e 22 209
e 22 213
e 22 237
e 22 239
e 22 240
e 22 244
e 22 247
e 22 248
e 22 254
e 23 131
e 23 135
e 23 136
e 23 142
e 23 146
e 23 147
e 23 149
e 23 150
e 23 156
e 23 159
e 23 165
e 23 171
e 23 186
e 23 194
e 23 198
e 23 200
e 23 201
e 23 206
e 23 207
e 23 208
e 23 209
e 23 219
e 23 223
e 23 226
e 23 227
e 23 237
e 23 248
e 23 250
e 24 129
e 24 138
e 24 142
e 24 146
e 24 161
e 24 164
e 24 191
e 24 195
e 24 196
e 24 198
e 24 199
e 24 202
e 24 215
e 24 222
e 24 225
e 24 227
e 24 233
e 24 234
e 24 237
e 24 239
e 24 241
e 24 245
e 24 253
e 25 133
e 25 141
e 25 145
e 25 148
e 25 162
e 25 168
e 25 175
e 25 186
e 25 188
e 25 189
e 25 193
e 25 200
e 25 210
e 25 215
e 25 226
e 25 230
e 25 234
e 25 239
e 25 245
e 26 154
e 26 159
e 26 160
e 26 173
e 26 176
e 26 180
e 26 185
e 26 186
e 26 187
e 26 189
e 26 195
e 26 197
e 26 206
e 26 207
e 26 211
e 26 215
e 26 217
e 26 218
e 26 221
e 26 227
e 26 234
e 26 237
e 26 246
e 26 250
e 26 256
e 27 129
e 27 134
e 27 139
e 27 145
e 27 150
e 27 158
e 27 163
e 27 168
e 27 175
e 27 177
e 27 180
e 27 189
e 27 190
e 27 193
e 27 201
e 27 220
e 27 229
e 27 233
e 27 234
e 27 242
e 27 245
e 27 254
e 28 131
e 28 132
e 28 137
e 28 142
e 28 143
e 28 145
e 28 148
e 28 150
e 28 152
e 28 155
e 28 160
e 28 161
e 28 172
e 28 173
e 28 174
e 28 183
e 28 188
e 28 194
e 28 199
e 28 201
e 28 205
e 28 216
e 28 221
e 28 225
e 28 232
e 28 237
e 28 245
e 28 255
e 28 256
e 29 132
e 29 142
e 29 143
e 29 157
e 29 163
e 29 165
e 29 168
e 29 169
e 29 170
e 29 173
e 29 191
e 29 192
e 29 195
e 29 197
e 29 198
e 29 201
e 29 209
e 29 218
e 29 222
e 29 223
e 29 227
e 29 228
e 29 233
e 29 237
e 29 240
e 29 245
e 29 246
e 29 247
e 29 249
e 29 254
e 29 255
e 30 142
e 30 146
e 30 160
e 30 173
e 30 178
e 30 180
e 30 183
e 30 191
e 30 203
e 30 206
e 30 208
e 30 211
e 30 232
e 30 234
e 30 242
e 30 244
e 30 246
e 30 250
e 30 254
e 30 256
e 31 136
e 31 137
e 31 138
e 31 144
e 31 148
e 31 149
e 31 158
e 31 162
e 31 164
e 31 168
e 31 182
e 31 185
e 31 187
e 31 190
e 31 198
e 31 217
e 31 220
e 31 222
e 31 228
e 31 240
e 31 241
e 31 249
e 31 251
e 31 254
e 31 256
e 32 131
e 32 142
e 32 144
e 32 152
e 32 153
e 32 157
e 32 159
e 32 161
e 32 162
e 32 165
e 32 169
e 32 176
e 32 185
e 32 186
e 32 188
e 32 192
e 32 200
e 32 211
e 32 212
e 32 219
e 32 220
e 32 223
e 32 224
e 32 233
e 32 252
e 32 254
e 32 255
e 33 134
e 33 137
e 33 141
e 33 149
e 33 151
e 33 155
e 33 158
e 33 159
e 33 164
e 33 167
e 33 169
e 33 171
e 33 191
e 33 192
e 33 199
e 33 210
e 33 212
e 33 214
e 33 216
e 33 219
e 33 221
e 33 229
e 33 230
e 33 236
e 33 242
e 33 245
e 33 248
e 33 251
e 33 255
e 33 256
e 34 130
e 34 148
e 34 149
e 34 157
e 34 165
e 34 175
e 34 177
e 34 180
e 34 181
e 34 183
e 34 190
e 34 200
e 34 202
e 34 209
e 34 211
e 34 213
e 34 219
e 34 240
e 34 243
e 34 244
e 34 246
e 34 249
e 34 255
e 35 133
e 35 135
e 35 156
e 35 159
e 35 165
e 35 166
e 35 175
e 35 181
e 35 182
e 35 191
e 35 197
e 35 198
e 35 200
e 35 205
e 35 209
e 35 210
e 35 212
e 35 213
e 35 217
e 35 228
e 35 229
e 35 238
e 35 245
e 35 248
e 35 251
e 35 256
e 36 129
e 36 134
e 36 150
e 36 155
e 36 159
e 36 164
e 36 165
e 36 171
e 36 176
e 36 184
e 36 188
e 36 192
e 36 207
e 36 212
e 36 219
e 36 225
e 36 232
e 36 242
e 36 256
e 37 135
e 37 140
e 37 143
e 37 144
e 37 159
e 37 167
e 37 169
e 37 172
e 37 176
e 37 181
e 37 184
e 37 185
e 37 187
e 37 190
e 37 192
e 37 207
e 37 214
e 37 216
e 37 220
e 37 222
e 37 225
e 37 227
e 37 239
e 37 241
e 37 242
e 37 254
e 38 131
e 38 138
e 38 139
e 38 143
e 38 148
e 38 154
e 38 159
e 38 166
e 38 167
e 38 169
e 38 172
e 38 173
e 38 175
e 38 176
e 38 181
e 38 187
e 38 192
e 38 194
e 38 196
e 38 197
e 38 199
e 38 205
e 38 206
e 38 208
e 38 209
e 38 210
e 38 216
e 38 230
e 38 231
e 38 233
e 38 236
e 38 247
e 38 255
e 38 256
e 39 129
e 39 136
e 39 144
e 39 149
e 39 150
e 39 151
e 39 152
e 39 154
e 39 157
e 39 158
e 39 159
e 39 163
e 39 165
e 39 166
e 39 169
e 39 170
e 39 172
e 39 177
e 39 180
e 39 181
e 39 185
e 39 196
e 39 197
e 39 199
e 39 204
e 39 213
e 39 219
e 39 225
e 39 226
e 39 228
e 39 238
e 39 239
e 39 240
e 39 243
e 39 255
e 40 129
e 40 130
e 40 131
e 40 132
e 40 139
e 40 141
e 40 142
e 40 154
e 40 159
e 40 163
e 40 164
e 40 192
e 40 205
e 40 214
e 40 215
e 40 219
e 40 221
e 40 222
e 40 231
e 40 238
e 40 251
e 40 252
e 40 255
e 40 256
e 41 137
e 41 165
e 41 173
e 41 174
e 41 179
e 41 188
e 41 203
e 41 209
e 41 216
e 41 220
e 41 226
e 41 228
e 41 231
e 41 233
e 41 238
e 41 248
e 41 251
e 42 133
e 42 135
e 42 140
e 42 144
e 42 154
e 42 167
e 42 176
e 42 179
e 42 182
e 42 200
e 42 201
e 42 202
e 42 205
e 42 208
e 42 210
e 42 212
e 42 217
e 42 218
e 42 227
e 42 235
e 42 237
e 42 242
e 42 246
e 42 247
e 43 130
e 43 131
e 43 136
e 43 150
e 43 152
e 43 155
e 43 160
e 43 170
e 43 177
e 43 178
e 43 186
e 43 190
e 43 191
e 43 193
e 43 201
e 43 206
e 43 207
e 43 211
e 43 215
e 43 220
e 43 227
e 43 228
e 43 234
e 43 241
e 43 242
e 43 245
e 43 248
e 43 249
e 43 253
e 43 256
e 44 135
e 44 136
e 44 137
e 44 142
e 44 146
e 44 150
e 44 152
e 44 158
e 44 159
e 44 163
e 44 165
e 44 181
e 44 182
e 44 188
e 44 191
e 44 193
e 44 194
e 44 199
e 44 203
e 44 215
e 44 216
e 44 219
e 44 225
e 44 227
e 44 229
e 44 232
e 44 235
e 44 238
e 44 239
e 44 241
e 44 248
e 44 256
e 45 129
e 45 131
e 45 133
e 45 136
e 45 144
e 45 145
e 45 149
e 45 152
e 45 161
e 45 162
e 45 163
e 45 171
e 45 174
e 45 177
e 45 184
e 45 188
e 45 194
e 45 196
e 45 200
e 45 204
e 45 210
e 45 216
e 45 217
e 45 220
e 45 222
e 45 229
e 45 234
e 45 235
e 45 239
e 45 241
e 45 253
e 45 255
e 46 136
e 46 137
e 46 138
e 46 142
e 46 149
e 46 150
e 46 153
e 46 163
e 46 165
e 46 166
e 46 172
e 46 183
e 46 189
e 46 190
e 46 202
e 46 204
e 46 205
e 46 207
e 46 208
e 46 212
e 46 217
e 46 224
e 46 226
e 46 229
e 46 236
e 46 244
e 46 249
e 46 253
e 47 137
e 47 140
e 47 144
e 47 145
e 47 153
e 47 162
e 47 173
e 47 174
e 47 175
e 47 180
e 47 186
e 47 187
e 47 198
e 47 199
e 47 200
e 47 201
e 47 205
e 47 210
e 47 216
e 47 217
e 47 218
e 47 220
e 47 221
e 47 225
e 47 227
e 47 229
e 47 231
e 47 232
e 47 241
e 47 242
e 47 245
e 47 247
e 48 130
e 48 135
e 48 144
e 48 150
e 48 163
e 48 185
e 48 186
e 48 191
e 48 194
e 48 196
e 48 200
e 48 207
e 48 210
e 48 216
e 48 220
e 48 226
e 48 232
e 48 236
e 48 244
e 48 247
e 48 250
e 48 252
e 49 130
e 49 132
e 49 133
e 49 143
e 49 146
e 49 148
e 49 150
e 49 151
e 49 153
e 49 162
e 49 165
e 49 170
e 49 172
e 49 194
e 49 200
e 49 216
e 49 217
e 49 220
e 49 223
e 49 227
e 49 230
e 49 233
e 49 241
e 49 244
e 49 247
e 49 251
e 49 253
e 50 133
e 50 137
e 50 138
e 50 146
e 50 147
e 50 148
e 50 173
e 50 174
e 50 178
e 50 194
e 50 206
e 50 212
e 50 214
e 50 224
e 50 238
e 50 240
e 50 243
e 50 244
e 50 252
e 50 254
e 50 256
e 51 134
e 51 136
e 51 151
e 51 153
e 51 156
e 51 163
e 51 185
e 51 188
e 51 195
e 51 196
e 51 200
e 51 201
e 51 204
e 51 210
e 51 215
e 51 216
e 51 227
e 51 232
e 51 245
e 51 247
e 51 252
e 52 130
e 52 141
e 52 142
e 52 143
e 52 146
e 52 150
e 52 152
e 52 164
e 52 171
e 52 176
e 52 177
e 52 179
e 52 183
e 52 184
e 52 185
e 52 189
e 52 203
e 52 208
e 52 209
e 52 212
e 52 213
e 52 219
e 52 223
e 52 228
e 52 230
e 52 244
e 53 129
e 53 131
e 53 132
e 53 136
e 53 138
e 53 140
e 53 147
e 53 150
e 53 156
e 53 159
e 53 161
e 53 162
e 53 168
e 53 175
e 53 190
e 53 206
e 53 213
e 53 217
e 53 218
e 53 220
e 53 228
e 53 229
e 53 233
e 53 234
e 53 241
e 53 243
e 53 252
e 53 254
e 53 255
e 54 130
e 54 135
e 54 139
e 54 144
e 54 149
e 54 151
e 54 152
e 54 158
e 54 162
e 54 170
e 54 171
e 54 174
e 54 177
e 54 180
e 54 184
e 54 186
e 54 189
e 54 190
e 54 194
e 54 195
e 54 208
e 54 212
e 54 217
e 54 223
e 54 225
e 54 230
e 54 231
e 54 233
e 54 237
e 54 238
e 54 241
e 54 242
e 54 243
e 54 246
e 55 131
e 55 132
e 55 133
e 55 134
e 55 149
e 55 153
e 55 157
e 55 159
e 55 161
e 55 171
e 55 176
e 55 189
e 55 201
e 55 210
e 55 216
e 55 221
e 55 228
e 55 243
e 55 244
e 55 245
e 55 255
e 56 130
e 56 132
e 56 135
e 56 146
e 56 147
e 56 149
e 56 152
e 56 155
e 56 160
e 56 171
e 56 172
e 56 197
e 56 207
e 56 209
e 56 210
e 56 212
e 56 214
e 56 229
e 56 244
e 56 246
e 56 250
e 56 255
e 57 141
e 57 143
e 57 154
e 57 159
e 57 163
e 57 164
e 57 169
e 57 179
e 57 182
e 57 189
e 57 190
e 57 199
e 57 201
e 57 209
e 57 214
e 57 215
e 57 238
e 57 245
e 57 253
e 58 132
e 58 139
e 58 141
e 58 154
e 58 164
e 58 172
e 58 179
e 58 190
e 58 201
e 58 219
e 58 220
e 58 222
e 58 227
e 58 228
e 58 230
e 58 241
e 58 243
e 58 255
e 59 129
e 59 139
e 59 140
e 59 141
e 59 147
e 59 150
e 59 152
e 59 154
e 59 155
e 59 156
e 59 157
e 59 159
e 59 160
e 59 165
e 59 167
e 59 172
e 59 188
e 59 189
e 59 205
e 59 220
e 59 232
e 59 233
e 59 236
e 59 237
e 59 245
e 59 249
e 59 251
e 60 130
e 60 137
e 60 146
e 60 152
e 60 153
e 60 155
e 60 156
e 60 157
e 60 159
e 60 163
e 60 172
e 60 176
e 60 180
e 60 188
e 60 189
e 60 190
e 60 198
e 60 205
e 60 210
e 60 218
e 60 223
e 60 224
e 60 242
e 60 243
e 60 245
e 60 250
e 60 252
e 60 255
e 61 129
e 61 134
e 61 135
e 61 145
e 61 151
e 61 153
e 61 158
e 61 161
e 61 162
e 61 164
e 61 166
e 61 170
e 61 174
e 61 177
e 61 185
e 61 187
e 61 190
e 61 203
e 61 210
e 61 213
e 61 215
e 61 220
e 61 224
e 61 228
e 61 238
e 61 239
e 61 241
e 61 242
e 61 243
e 61 250
e 61 251
e 61 252
e 61 253
e 62 130
e 62 137
e 62 138
e 62 148
e 62 151
e 62 153
e 62 159
e 62 161
e 62 167
e 62 168
e 62 172
e 62 180
e 62 183
e 62 185
e 62 190
e 62 199
e 62 201
e 62 202
e 62 203
e 62 207
e 62 218
e 62 240
e 62 242
e 62 247
e 62 251
e 62 253
e 62 255
e 63 131
e 63 132
e 63 133
e 63 136
e 63 137
e 63 150
e 63 152
e 63 153
e 63 163
e 63 166
e 63 168
e 63 170
e 63 174
e 63 181
e 63 183
e 63 192
e 63 195
e 63 198
e 63 208
e 63 210
e 63 216
e 63 217
e 63 239
e 63 242
e 64 132
e 64 135
e 64 139
e 64 141
e 64 146
e 64 152
e 64 170
e 64 174
e 64 175
e 64 180
e 64 185
e 64 189
e 64 196
e 64 200
e 64 201
e 64 202
e 64 204
e 64 205
e 64 211
e 64 213
e 64 221
e 64 224
e 64 226
e 64 241
e 64 245
e 64 246
e 64 249
e 64 254
e 65 136
e 65 138
e 65 139
e 65 146
e 65 148
e 65 155
e 65 156
e 65 164
e 65 166
e 65 174
e 65 180
e 65 187
e 65 190
e 65 191
e 65 197
e 65 200
e 65 203
e 65 205
e 65 207
e 65 219
e 65 225
e 65 226
e 65 227
e 65 229
e 65 237
e 65 238
e 65 246
e 66 131
e 66 133
e 66 148
e 66 152
e 66 172
e 66 176
e 66 177
e 66 189
e 66 192
e 66 193
e 66 197
e 66 200
e 66 205
e 66 210
e 66 215
e 66 220
e 66 223
e 66 238
e 66 246
e 66 247
e 66 248
e 66 249
e 66 254
e 66 255
e 67 129
e 67 141
e 67 143
e 67 146
e 67 155
e 67 159
e 67 163
e 67 166
e 67 167
e 67 169
e 67 171
e 67 176
e 67 178
e 67 190
e 67 203
e 67 209
e 67 215
e 67 221
e 67 222
e 67 228
e 67 234
e 67 241
e 67 242
e 67 247
e 67 249
e 67 250
e 68 137
e 68 138
e 68 150
e 68 155
e 68 160
e 68 163
e 68 167
e 68 172
e 68 173
e 68 179
e 68 183
e 68 186
e 68 188
e 68 190
e 68 203
e 68 204
e 68 208
e 68 213
e 68 226
e 68 229
e 68 235
e 68 249
e 68 255
e 69 131
e 69 137
e 69 144
e 69 145
e 69 156
e 69 162
e 69 167
e 69 172
e 69 174
e 69 179
e 69 185
e 69 188
e 69 202
e 69 203
e 69 207
e 69 210
e 69 212
e 69 220
e 69 221
e 69 228
e 69 237
e 69 239
e 69 254
e 69 255
e 70 130
e 70 136
e 70 140
e 70 142
e 70 147
e 70 149
e 70 153
e 70 160
e 70 171
e 70 178
e 70 179
e 70 180
e 70 184
e 70 197
e 70 215
e 70 217
e 70 229
e 70 230
e 70 231
e 70 233
e 70 239
e 70 242
e 70 243
e 70 246
e 70 249
e 70 255
e 71 130
e 71 133
e 71 134
e 71 143
e 71 144
e 71 145
e 71 151
e 71 153
e 71 158
e 71 167
e 71 168
e 71 172
e 71 173
e 71 177
e 71 188
e 71 191
e 71 195
e 71 206
e 71 209
e 71 219
e 71 220
e 71 222
e 71 234
e 71 236
e 71 237
e 71 245
e 71 248
e 71 254
e 72 131
e 72 137
e 72 138
e 72 139
e 72 148
e 72 150
e 72 153
e 72 155
e 72 156
e 72 157
e 72 158
e 72 159
e 72 161
e 72 172
e 72 174
e 72 177
e 72 187
e 72 188
e 72 192
e 72 196
e 72 201
e 72 207
e 72 214
e 72 216
e 72 222
e 72 224
e 72 226
e 72 230
e 72 233
e 72 235
e 72 236
e 72 240
e 72 252
e 73 130
e 73 136
e 73 140
e 73 147
e 73 148
e 73 151
e 73 156
e 73 157
e 73 159
e 73 166
e 73 167
e 73 169
e 73 182
e 73 185
e 73 192
e 73 203
e 73 204
e 73 215
e 73 224
e 73 225
e 73 228
e 73 233
e 73 235
e 73 239
e 73 243
e 73 252
e 73 253
e 74 130
e 74 138
e 74 148
e 74 155
e 74 158
e 74 160
e 74 179
e 74 180
e 74 187
e 74 199
e 74 200
e 74 207
e 74 209
e 74 210
e 74 212
e 74 213
e 74 216
e 74 221
e 74 225
e 74 227
e 74 229
e 74 230
e 74 242
e 74 243
e 74 248
e 74 253
e 74 255
e 74 256
e 75 131
e 75 140
e 75 156
e 75 169
e 75 179
e 75 180
e 75 186
e 75 187
e 75 188
e 75 190
e 75 198
e 75 209
e 75 230
e 75 241
e 75 245
e 75 250
e 76 130
e 76 136
e 76 144
e 76 159
e 76 166
e 76 168
e 76 183
e 76 184
e 76 187
e 76 201
e 76 204
e 76 205
e 76 216
e 76 222
e 76 223
e 76 225
e 76 230
e 76 248
e 76 253
e 77 132
e 77 136
e 77 141
e 77 144
e 77 148
e 77 151
e 77 153
e 77 155
e 77 156
e 77 158
e 77 168
e 77 178
e 77 181
e 77 187
e 77 192
e 77 193
e 77 204
e 77 205
e 77 207
e 77 211
e 77 212
e 77 219
e 77 224
e 77 232
e 77 233
e 77 235
e 77 243
e 77 245
e 77 246
e 77 247
e 77 254
e 78 141
e 78 147
e 78 149
e 78 154
e 78 159
e 78 160
e 78 162
e 78 194
e 78 201
e 78 203
e 78 209
e 78 210
e 78 215
e 78 216
e 78 222
e 78 223
e 78 224
e 78 230
e 78 245
e 78 248
e 78 253
e 79 130
e 79 134
e 79 136
e 79 142
e 79 146
e 79 150
e 79 151
e 79 155
e 79 157
e 79 166
e 79 174
e 79 184
e 79 189
e 79 204
e 79 207
e 79 210
e 79 217
e 79 219
e 79 225
e 79 227
e 79 231
e 79 248
e 79 251
e 79 253
e 79 254
e 80 129
e 80 134
e 80 140
e 80 149
e 80 161
e 80 163
e 80 167
e 80 181
e 80 185
e 80 186
e 80 190
e 80 199
e 80 212
e 80 219
e 80 228
e 80 235
e 80 240
e 80 245
e 80 249
e 80 252
e 80 253
e 80 254
e 80 256
e 81 129
e 81 140
e 81 146
e 81 149
e 81 174
e 81 182
e 81 185
e 81 186
e 81 187
e 81 190
e 81 195
e 81 201
e 81 206
e 81 208
e 81 212
e 81 223
e 81 230
e 81 231
e 81 236
e 81 240
e 81 242
e 81 244
e 81 245
e 82 139
e 82 142
e 82 150
e 82 152
e 82 163
e 82 170
e 82 171
e 82 174
e 82 176
e 82 182
e 82 184
e 82 195
e 82 196
e 82 197
e 82 199
e 82 200
e 82 207
e 82 210
e 82 212
e 82 217
e 82 219
e 82 221
e 82 231
e 82 232
e 82 235
e 82 238
e 82 241
e 82 246
e 82 251
e 82 252
e 83 129
e 83 130
e 83 131
e 83 136
e 83 137
e 83 139
e 83 140
e 83 152
e 83 154
e 83 161
e 83 171
e 83 174
e 83 200
e 83 202
e 83 209
e 83 210
e 83 214
e 83 219
e 83 220
e 83 221
e 83 222
e 83 229
e 83 231
e 83 243
e 83 254
e 84 132
e 84 135
e 84 136
e 84 140
e 84 143
e 84 150
e 84 154
e 84 155
e 84 159
e 84 160
e 84 164
e 84 165
e 84 169
e 84 187
e 84 194
e 84 197
e 84 198
e 84 212
e 84 216
e 84 221
e 84 223
e 84 226
e 84 230
e 84 233
e 84 237
e 84 238
e 84 240
e 84 246
e 84 255
e 85 130
e 85 135
e 85 141
e 85 146
e 85 147
e 85 151
e 85 156
e 85 186
e 85 187
e 85 194
e 85 196
e 85 198
e 85 213
e 85 214
e 85 216
e 85 221
e 85 222
e 85 224
e 85 227
e 85 233
e 85 241
e 85 244
e 85 248
e 85 250
e 85 252
e 85 254
e 86 130
e 86 143
e 86 146
e 86 148
e 86 151
e 86 154
e 86 163
e 86 164
e 86 173
e 86 176
e 86 184
e 86 185
e 86 195
e 86 201
e 86 210
e 86 217
e 86 220
e 86 224
e 86 235
e 86 237
e 86 243
e 86 250
e 86 252
e 87 130
e 87 133
e 87 137
e 87 142
e 87 147
e 87 149
e 87 152
e 87 156
e 87 159
e 87 163
e 87 165
e 87 168
e 87 171
e 87 172
e 87 186
e 87 191
e 87 193
e 87 206
e 87 207
e 87 222
e 87 226
e 87 227
e 87 234
e 87 236
e 87 246
e 87 252
e 88 135
e 88 140
e 88 142
e 88 153
e 88 156
e 88 157
e 88 159
e 88 160
e 88 161
e 88 166
e 88 167
e 88 168
e 88 170
e 88 175
e 88 187
e 88 193
e 88 201
e 88 203
e 88 204
e 88 209
e 88 214
e 88 216
e 88 217
e 88 219
e 88 224
e 88 231
e 88 252
e 88 253
e 89 130
e 89 145
e 89 148
e 89 149
e 89 152
e 89 153
e 89 155
e 89 156
e 89 161
e 89 173
e 89 178
e 89 185
e 89 192
e 89 194
e 89 199
e 89 200
e 89 204
e 89 209
e 89 210
e 89 212
e 89 214
e 89 216
e 89 218
e 89 222
e 89 224
e 89 229
e 89 232
e 89 234
e 89 240
e 89 245
e 90 145
e 90 155
e 90 156
e 90 158
e 90 162
e 90 170
e 90 172
e 90 177
e 90 182
e 90 184
e 90 204
e 90 211
e 90 212
e 90 214
e 90 221
e 90 229
e 90 237
e 90 240
e 90 247
e 90 248
e 90 249
e 90 253
e 90 255
e 90 256
e 91 130
e 91 138
e 91 141
e 91 143
e 91 149
e 91 154
e 91 164
e 91 170
e 91 182
e 91 196
e 91 197
e 91 202
e 91 214
e 91 217
e 91 218
e 91 224
e 91 229
e 91 230
e 91 234
e 91 237
e 91 238
e 91 244
e 91 248
e 91 253
e 91 255
e 92 130
e 92 138
e 92 139
e 92 142
e 92 154
e 92 162
e 92 182
e 92 184
e 92 187
e 92 188
e 92 189
e 92 190
e 92 191
e 92 199
e 92 201
e 92 202
e 92 209
e 92 213
e 92 230
e 92 243
e 92 245
e 92 253
e 92 254
e 93 147
e 93 149
e 93 153
e 93 161
e 93 169
e 93 174
e 93 175
e 93 176
e 93 181
e 93 184
e 93 185
e 93 194
e 93 197
e 93 200
e 93 209
e 93 210
e 93 215
e 93 217
e 93 228
e 93 230
e 93 234
e 93 238
e 93 246
e 93 247
e 94 130
e 94 133
e 94 135
e 94 137
e 94 142
e 94 143
e 94 157
e 94 164
e 94 165
e 94 166
e 94 168
e 94 170
e 94 179
e 94 185
e 94 192
e 94 193
e 94 196
e 94 198
e 94 223
e 94 229
e 94 232
e 94 237
e 94 247
e 94 249
e 95 129
e 95 136
e 95 148
e 95 160
e 95 163
e 95 164
e 95 166
e 95 173
e 95 176
e 95 178
e 95 184
e 95 188
e 95 189
e 95 193
e 95 194
e 95 195
e 95 220
e 95 222
e 95 232
e 95 234
e 95 238
e 95 240
e 95 244
e 95 247
e 95 249
e 95 256
e 96 137
e 96 152
e 96 163
e 96 167
e 96 173
e 96 183
e 96 196
e 96 201
e 96 217
e 96 230
e 96 238
e 96 241
e 96 252
e 97 134
e 97 143
e 97 149
e 97 156
e 97 158
e 97 162
e 97 170
e 97 178
e 97 181
e 97 192
e 97 195
e 97 201
e 97 206
e 97 212
e 97 216
e 97 218
e 97 222
e 97 225
e 97 227
e 97 246
e 97 250
e 98 129
e 98 132
e 98 137
e 98 153
e 98 154
e 98 160
e 98 161
e 98 162
e 98 163
e 98 171
e 98 173
e 98 179
e 98 181
e 98 183
e 98 192
e 98 194
e 98 195
e 98 197
e 98 199
e 98 202
e 98 204
e 98 205
e 98 211
e 98 226
e 98 228
e 98 231
e 98 246
e 98 252
e 99 135
e 99 142
e 99 147
e 99 150
e 99 161
e 99 171
e 99 172
e 99 179
e 99 184
e 99 185
e 99 187
e 99 190
e 99 206
e 99 209
e 99 212
e 99 213
e 99 226
e 99 229
e 99 233
e 99 235
e 99 245
e 99 246
e 99 251
e 99 254
e 100 129
e 100 130
e 100 142
e 100 145
e 100 148
e 100 155
e 100 158
e 100 160
e 100 162
e 100 170
e 100 174
e 100 180
e 100 183
e 100 194
e 100 197
e 100 205
e 100 225
e 100 230
e 100 234
e 100 245
e 100 246
e 100 250
e 100 251
e 100 253
e 100 254
e 101 149
e 101 152
e 101 159
e 101 171
e 101 172
e 101 174
e 101 176
e 101 181
e 101 190
e 101 192
e 101 214
e 101 216
e 101 218
e 101 219
e 101 229
e 101 230
e 101 236
e 101 241
e 101 244
e 101 249
e 102 137
e 102 138
e 102 145
e 102 151
e 102 152
e 102 161
e 102 170
e 102 171
e 102 175
e 102 176
e 102 177
e 102 181
e 102 184
e 102 188
e 102 192
e 102 201
e 102 205
e 102 210
e 102 221
e 102 237
e 102 240
e 102 250
e 103 131
e 103 133
e 103 138
e 103 144
e 103 152
e 103 155
e 103 156
e 103 160
e 103 161
e 103 172
e 103 173
e 103 179
e 103 188
e 103 193
e 103 195
e 103 201
e 103 204
e 103 206
e 103 211
e 103 215
e 103 221
e 103 228
e 103 230
e 103 233
e 103 246
e 103 253
e 104 144
e 104 147
e 104 150
e 104 162
e 104 163
e 104 166
e 104 167
e 104 170
e 104 177
e 104 189
e 104 190
e 104 191
e 104 207
e 104 219
e 104 221
e 104 222
e 104 228
e 104 234
e 104 236
e 104 237
e 104 239
e 104 249
e 104 251
e 104 252
e 105 130
e 105 134
e 105 138
e 105 139
e 105 140
e 105 143
e 105 145
e 105 146
e 105 151
e 105 152
e 105 163
e 105 166
e 105 168
e 105 171
e 105 185
e 105 205
e 105 211
e 105 212
e 105 219
e 105 220
e 105 224
e 105 227
e 105 230
e 105 233
e 105 244
e 105 248
e 105 253
e 106 131
e 106 138
e 106 142
e 106 147
e 106 148
e 106 157
e 106 168
e 106 169
e 106 170
e 106 181
e 106 183
e 106 199
e 106 204
e 106 205
e 106 207
e 106 226
e 106 229
e 106 241
e 106 245
e 106 246
e 106 247
e 106 248
e 106 252
e 106 254
e 107 132
e 107 138
e 107 156
e 107 157
e 107 158
e 107 165
e 107 178
e 107 185
e 107 191
e 107 192
e 107 193
e 107 197
e 107 203
e 107 207
e 107 215
e 107 216
e 107 220
e 107 227
e 107 236
e 107 247
e 107 252
e 108 129
e 108 130
e 108 132
e 108 139
e 108 143
e 108 144
e 108 146
e 108 158
e 108 163
e 108 164
e 108 166
e 108 182
e 108 186
e 108 189
e 108 197
e 108 199
e 108 201
e 108 205
e 108 208
e 108 212
e 108 218
e 108 222
e 108 230
e 108 233
e 108 235
e 108 238
e 108 246
e 108 249
e 108 250
e 109 138
e 109 142
e 109 146
e 109 158
e 109 166
e 109 167
e 109 169
e 109 172
e 109 179
e 109 180
e 109 190
e 109 193
e 109 195
e 109 200
e 109 206
e 109 207
e 109 215
e 109 218
e 109 221
e 109 223
e 109 225
e 109 228
e 109 233
e 109 240
e 109 246
e 109 248
e 109 250
e 109 255
e 110 132
e 110 142
e 110 146
e 110 157
e 110 161
e 110 162
e 110 169
e 110 175
e 110 176
e 110 183
e 110 186
e 110 190
e 110 197
e 110 205
e 110 208
e 110 209
e 110 212
e 110 217
e 110 218
e 110 226
e 110 229
e 110 231
e 110 232
e 110 250
e 111 134
e 111 135
e 111 137
e 111 138
e 111 147
e 111 148
e 111 151
e 111 161
e 111 165
e 111 171
e 111 173
e 111 175
e 111 188
e 111 194
e 111 199
e 111 200
e 111 202
e 111 203
e 111 204
e 111 206
e 111 208
e 111 210
e 111 212
e 111 217
e 111 218
e 111 220
e 111 226
e 111 228
e 111 231
e 111 237
e 111 241
e 111 254
e 111 255
e 112 137
e 112 150
e 112 153
e 112 155
e 112 158
e 112 164
e 112 172
e 112 175
e 112 179
e 112 186
e 112 188
e 112 189
e 112 198
e 112 203
e 112 205
e 112 207
e 112 209
e 112 214
e 112 217
e 112 220
e 112 225
e 112 226
e 112 228
e 112 229
e 112 233
e 112 238
e 112 241
e 112 244
e 112 254
e 113 130
e 113 131
e 113 136
e 113 141
e 113 146
e 113 148
e 113 153
e 113 161
e 113 162
e 113 167
e 113 168
e 113 169
e 113 175
e 113 176
e 113 180
e 113 182
e 113 183
e 113 187
e 113 207
e 113 216
e 113 223
e 113 224
e 113 227
e 113 233
e 113 239
e 113 254
e 114 141
e 114 143
e 114 145
e 114 146
e 114 153
e 114 169
e 114 173
e 114 175
e 114 184
e 114 193
e 114 195
e 114 211
e 114 215
e 114 223
e 114 224
e 114 231
e 114 235
e 114 238
e 114 246
e 114 247
e 114 251
e 114 253
e 115 143
e 115 145
e 115 156
e 115 157
e 115 158
e 115 159
e 115 170
e 115 176
e 115 178
e 115 182
e 115 195
e 115 197
e 115 208
e 115 209
e 115 225
e 115 227
e 115 230
e 115 236
e 115 237
e 115 245
e 115 246
e 115 254
e 116 129
e 116 135
e 116 138
e 116 145
e 116 148
e 116 151
e 116 153
e 116 154
e 116 157
e 116 162
e 116 172
e 116 176
e 116 178
e 116 188
e 116 196
e 116 198
e 116 207
e 116 208
e 116 209
e 116 211
e 116 214
e 116 220
e 116 224
e 116 226
e 116 231
e 116 236
e 116 238
e 116 245
e 116 247
e 116 256
e 117 132
e 117 137
e 117 143
e 117 156
e 117 162
e 117 169
e 117 170
e 117 174
e 117 175
e 117 179
e 117 183
e 117 187
e 117 191
e 117 195
e 117 198
e 117 199
e 117 204
e 117 207
e 117 209
e 117 214
e 117 217
e 117 233
e 117 239
e 117 241
e 117 246
e 117 254
e 118 129
e 118 132
e 118 143
e 118 144
e 118 153
e 118 164
e 118 175
e 118 182
e 118 184
e 118 198
e 118 204
e 118 209
e 118 222
e 118 224
e 118 228
e 118 231
e 118 236
e 118 247
e 118 249
e 118 251
e 118 255
e 119 132
e 119 136
e 119 143
e 119 144
e 119 145
e 119 152
e 119 159
e 119 165
e 119 167
e 119 168
e 119 172
e 119 180
e 119 183
e 119 184
e 119 185
e 119 193
e 119 195
e 119 198
e 119 201
e 119 210
e 119 211
e 119 222
e 119 242
e 119 252
e 120 130
e 120 131
e 120 139
e 120 145
e 120 150
e 120 153
e 120 154
e 120 157
e 120 162
e 120 166
e 120 167
e 120 171
e 120 179
e 120 182
e 120 183
e 120 186
e 120 204
e 120 212
e 120 215
e 120 216
e 120 223
e 120 236
e 120 247
e 120 248
e 120 249
e 120 250
e 120 251
e 120 252
e 120 254
e 120 255
e 120 256
e 121 130
e 121 133
e 121 136
e 121 137
e 121 142
e 121 156
e 121 174
e 121 175
e 121 180
e 121 196
e 121 200
e 121 205
e 121 206
e 121 207
e 121 221
e 121 228
e 121 231
e 121 237
e 121 241
e 121 242
e 121 245
e 121 249
e 121 255
e 121 256
e 122 132
e 122 136
e 122 137
e 122 141
e 122 146
e 122 148
e 122 158
e 122 161
e 122 164
e 122 171
e 122 173
e 122 177
e 122 179
e 122 189
e 122 191
e 122 199
e 122 214
e 122 215
e 122 216
e 122 217
e 122 223
e 122 225
e 122 226
e 122 239
e 122 252
e 122 256
e 123 133
e 123 137
e 123 138
e 123 142
e 123 152
e 123 166
e 123 167
e 123 168
e 123 177
e 123 190
e 123 191
e 123 192
e 123 195
e 123 202
e 123 207
e 123 213
e 123 218
e 123 234
e 123 238
e 123 254
e 123 256
e 124 134
e 124 135
e 124 140
e 124 144
e 124 157
e 124 160
e 124 162
e 124 173
e 124 178
e 124 190
e 124 192
e 124 200
e 124 203
e 124 205
e 124 206
e 124 208
e 124 212
e 124 213
e 124 217
e 124 223
e 124 227
e 124 231
e 124 238
e 124 239
e 124 248
e 125 139
e 125 142
e 125 143
e 125 147
e 125 150
e 125 151
e 125 157
e 125 159
e 125 166
e 125 171
e 125 172
e 125 174
e 125 175
e 125 181
e 125 183
e 125 186
e 125 197
e 125 202
e 125 205
e 125 214
e 125 219
e 125 233
e 125 234
e 125 239
e 125 244
e 125 247
e 126 130
e 126 131
e 126 133
e 126 135
e 126 144
e 126 145
e 126 158
e 126 173
e 126 179
e 126 183
e 126 186
e 126 190
e 126 193
e 126 194
e 126 198
e 126 203
e 126 204
e 126 210
e 126 212
e 126 216
e 126 217
e 126 221
e 126 226
e 126 230
e 126 233
e 126 234
e 126 236
e 126 246
e 126 247
e 126 251
e 127 135
e 127 137
e 127 138
e 127 141
e 127 143
e 127 145
e 127 150
e 127 163
e 127 169
e 127 176
e 127 177
e 127 178
e 127 181
e 127 183
e 127 188
e 127 200
e 127 215
e 127 219
e 127 222
e 127 225
e 127 226
e 127 229
e 127 238
e 127 241
e 127 245
e 127 246
e 127 251
e 127 255
e 128 130
e 128 133
e 128 134
e 128 142
e 128 152
e 128 154
e 128 157
e 128 159
e 128 162
e 128 178
e 128 185
e 128 187
e 128 189
e 128 190
e 128 195
e 128 198
e 128 204
e 128 209
e 128 221
e 128 228
e 128 233
e 128 240
e 128 242
e 128 245
e 128 250
